StudentsNr = 10;
InstructorsNr = 79;
DaysNr = 1;
SlotsPerDay = 10;
AvailabilitySlotsLenght = 10;
RoomNr = 1;
ProgrammNr = 1;
DegreeNr = 3;
RolesNr = 1;
CoursesNr = 8;
InstructorsProgramm = [{1}, {1}, {1}, {1}, {1}, {1}, {1}, {1}, {1}, {1}, {1}, {1}, {1}, {1}, {1}, {1}, {1}, {1}, {1}, {1}, {1}, {1}, {1}, {1}, {1}, {1}, {1}, {1}, {1}, {1}, {1}, {1}, {1}, {1}, {1}, {1}, {1}, {1}, {1}, {1}, {1}, {1}, {1}, {1}, {1}, {1}, {1}, {1}, {1}, {1}, {1}, {1}, {1}, {1}, {1}, {1}, {1}, {1}, {1}, {1}, {1}, {1}, {1}, {1}, {1}, {1}, {1}, {1}, {1}, {1}, {1}, {1}, {1}, {1}, {1}, {1}, {1}, {1}, {1}];
InstructorRolesPerProgramm = [|{4, 6, 7, 12, 14, 16, 20, 22, 30, 31, 34, 35, 37, 38, 41, 42, 44, 46, 49, 52, 53, 55, 56, 58, 59, 60, 62, 64, 67, 70, 71, 73, 76, 77, 78}|];
InstructorsAvailability = [|1, |1, |1, |1, |1, |1, |0, |0, |0, |1, |0, |0, |1, |1, |1, |1, |0, |0, |0, |0, |1, |1, |1, |1, |0, |0, |1, |0, |1, |1, |0, |1, |1, |0, |1, |0, |0, |0, |1, |0, |1, |0, |0, |1, |1, |1, |1, |1, |0, |1, |0, |0, |0, |1, |1, |1, |0, |1, |0, |1, |0, |1, |0, |0, |1, |0, |1, |0, |0, |0, |1, |1, |0, |1, |1, |1, |0, |1, |0|];
StudentsProgramm = [1, 1, 1, 1, 1, 1, 1, 1, 1, 1];
StudentsDegree = [3, 1, 1, 2, 2, 3, 3, 2, 1, 1];
StudentsSupervisorId = [17, 77, 66, 3, 39, 32, 28, 39, 43, 3];
StudentsCourseIds = [{3, 5, 6}, {1, 2, 3, 5, 8}, {2, 4, 5, 7, 8}, {2, 4, 5, 7, 8}, {1, 4, 5, 6, 8}, {1, 2, 8}, {2, 3, 8}, {1, 2, 3, 6, 8}, {1, 4, 5, 6, 8}, {1, 2, 4, 7, 8}];
StudentsAvailability = [|1, |1, |1, |1, |0, |0, |1, |0, |1, |0|];
TheoryticalMinCard = [0, 0, 0, 0, 0, 0, 0, 0, 0, 0];
CoursesInstructorIds = [{7, 8, 9, 11, 12, 13, 14, 17, 20, 22, 23, 24, 28, 29, 30, 33, 36, 37, 38, 41, 44, 47, 49, 52, 53, 56, 57, 58, 59, 60, 61, 62, 65, 67, 69, 71, 72, 77, 78, 79}, {4, 6, 7, 9, 12, 14, 15, 17, 18, 20, 22, 23, 26, 27, 32, 34, 35, 36, 37, 38, 39, 40, 46, 47, 48, 49, 50, 51, 54, 56, 58, 59, 61, 62, 63, 66, 67, 68, 69, 70, 71, 73, 74, 75, 76, 77, 78}, {1, 3, 4, 5, 7, 9, 13, 14, 16, 18, 19, 20, 21, 24, 26, 28, 30, 31, 34, 36, 37, 39, 40, 41, 44, 45, 46, 47, 48, 49, 50, 51, 52, 53, 54, 55, 57, 59, 60, 61, 62, 64, 65, 66, 68, 69, 70, 71, 73, 74, 75, 76, 77, 79}, {2, 3, 4, 6, 9, 10, 12, 19, 20, 23, 33, 35, 36, 38, 41, 45, 46, 48, 50, 52, 54, 55, 58, 59, 61, 62, 63, 68, 69, 70, 74, 76, 77, 78, 79}, {2, 3, 11, 14, 15, 17, 19, 21, 23, 25, 26, 27, 29, 31, 32, 33, 34, 35, 36, 38, 39, 41, 42, 43, 46, 47, 49, 50, 51, 53, 54, 55, 58, 59, 60, 61, 63, 64, 65, 66, 68, 70, 71, 73, 74, 75, 76, 77, 78, 79}, {1, 2, 7, 8, 13, 17, 18, 19, 21, 23, 25, 28, 29, 32, 41, 48, 50, 68, 69, 70, 72, 73, 75}, {3, 4, 6, 7, 9, 11, 20, 22, 24, 25, 26, 29, 30, 32, 33, 36, 38, 39, 40, 42, 43, 45, 47, 48, 52, 53, 55, 57, 61, 64, 65, 68, 70, 71, 72, 75, 76}, {6, 8, 9, 15, 19, 23, 26, 27, 30, 31, 33, 34, 36, 39, 42, 45, 46, 47, 49, 50, 53, 54, 55, 56, 58, 59, 60, 62, 63, 65, 67, 69, 70, 72, 73, 74, 77, 79}];
RolesDemands = [17];
RolesContinuity = [];
ExamLen = [2, 2, 2, 2, 2, 2, 2, 2, 2, 2];
LunchTsMinLen = 0;
LunchStarts = [3..6];
SupervisorAvailable = 0;
OptimalLunchLenght = [3, 2];
OptimalStartTs = [1, 0];
OptimalFinishTs = [0, 10];
MinimizeRooms = 100;
RolesSoftContinuity = [|1|1|];
SameDegreeInRoom = 0;
Mergeability = 2;
